2 7
41 39
11 2
21 99
27 71
20 162
51 22
75 41
90 23
73 36
78 24
21 99
2 6
34 50
24 167
44 89
14 193
3 34
57 12
5 100
3 53
9 129
9 189
32 149
57 45
86 18
15 99
24 1
40 49
8 143
13 139
13 36
7 7
76 18
1 93
16 66
90 38
35 63
5 184
86 15
72 13
65 80
19 118
99 13
22 89
17 51
1 103
26 37
13 35
6 165
48 62
67 40
8 31
40 93
4 35
5 144
7 54
25 145
6 129
82 68
14 127
14 126
82 28
7 24
38 18
49 93
92 42
32 34
15 35
13 81
22 124
1 128
69 43
45 22
53 75
29 139
17 195
45 69
22 196
97 59
57 67
84 36
70 8
39 50
32 35
46 127
21 159
39 9
27 18
6 118
55 57
10 42
76 44
3 155
25 84
44 78
5 128
11 23
7 129
30 169
